1 -1 2 0
1 -3 4 0
1 -3 5 0
1 -3 -1 0
1 3 -6 0
1 7 8 0
1 7 9 0
1 -7 -10 0
1 -7 11 0
1 7 6 0
1 -10 8 0
1 -10 9 0
1 -10 -4 0
1 10 -5 0
1 10 -11 0
1 10 12 0
1 -10 7 0
1 10 -6 0
1 -5 13 0
1 5 -14 0
1 5 15 0
1 -5 -10 0
1 5 3 0
1 -5 16 0
1 -5 -17 0
1 -5 -18 0
1 5 7 0
1 -5 -1 0
1 5 2 0
1 -2 -13 0
1 2 14 0
1 2 -15 0
1 2 -10 0
1 2 3 0
1 -2 -5 0
1 2 -17 0
1 -2 18 0
1 -2 -7 0
1 4 13 0
1 -4 19 0
1 4 -20 0
1 -4 21 0
1 -4 -16 0
1 4 22 0
1 4 23 0
1 4 7 0
1 4 -6 0
1 -6 13 0
1 -6 -20 0
1 6 10 0
1 6 -4 0
1 6 -16 0
1 -6 22 0
1 6 -7 0
1 6 -24 0
1 18 -8 0
1 -18 9 0
1 -18 -5 0
1 18 11 0
1 -18 -12 0
1 18 23 0
1 18 -2 0
1 15 -8 0
1 -15 9 0
1 -15 -20 0
1 15 -5 0
1 15 11 0
1 -15 -18 0
1 15 -2 0
1 -17 8 0
1 -17 9 0
1 17 14 0
1 17 25 0
1 -17 -26 0
1 -17 5 0
1 17 11 0
1 -17 -12 0
1 17 -27 0
1 -17 -22 0
1 -17 -28 0
1 -17 -2 0
1 14 9 0
1 -14 -25 0
1 -14 19 0
1 14 -26 0
1 -14 5 0
1 -14 -11 0
1 14 12 0
1 14 -17 0
1 14 -27 0
1 14 -28 0
1 -14 -2 0
1 12 -29 0
1 -12 -9 0
1 -12 -14 0
1 -12 -15 0
1 -12 30 0
1 -12 31 0
1 12 -17 0
1 12 18 0
1 9 -32 0
1 9 29 0
1 9 -15 0
1 9 -33 0
1 9 -31 0
1 9 -12 0
1 9 17 0
1 9 18 0
1 9 -7 0
1 9 -34 0
1 -11 8 0
1 11 -35 0
1 11 -13 0
1 -11 -14 0
1 11 -15 0
1 -11 -16 0
1 -11 -17 0
1 11 18 0
1 -11 -7 0
1 11 -34 0
1 -8 -35 0
1 -8 -13 0
1 8 14 0
1 8 -15 0
1 8 -10 0
1 -8 -11 0
1 -8 -36 0
1 8 16 0
1 8 -17 0
1 -8 18 0
1 8 34 0
1 31 9 0
1 -31 25 0
1 31 -26 0
1 -31 -16 0
1 -31 -27 0
1 -31 -28 0
1 -29 9 0
1 -29 -13 0
1 29 25 0
1 29 -26 0
1 -29 31 0
1 -29 12 0
1 -29 -27 0
1 29 -28 0
1 33 -32 0
1 33 9 0
1 33 -26 0
1 -33 -36 0
1 33 12 0
1 33 27 0
1 33 28 0
1 -32 -35 0
1 32 9 0
1 32 -26 0
1 -32 33 0
1 32 -12 0
1 32 27 0
1 32 -28 0
1 -28 32 0
1 -28 14 0
1 -28 -26 0
1 -28 33 0
1 -28 -31 0
1 28 17 0
1 -26 32 0
1 -26 -29 0
1 26 33 0
1 -26 31 0
1 26 17 0
1 26 -28 0
1 27 32 0
1 27 29 0
1 -27 14 0
1 -27 -37 0
1 27 -30 0
1 27 31 0
1 27 -17 0
1 -27 -34 0
1 25 32 0
1 -25 -29 0
1 25 14 0
1 -25 -37 0
1 -25 30 0
1 25 33 0
1 -25 31 0
1 25 17 0
1 -25 -27 0
1 23 -38 0
1 23 20 0
1 -23 39 0
1 -23 -4 0
1 23 40 0
1 -23 41 0
1 -23 -18 0
1 -23 6 0
1 -20 -38 0
1 -20 -15 0
1 20 -39 0
1 -20 -40 0
1 20 41 0
1 20 23 0
1 -20 -6 0
1 22 38 0
1 -22 39 0
1 -22 42 0
1 -22 -43 0
1 22 4 0
1 22 -17 0
1 22 -41 0
1 22 -44 0
1 22 45 0
1 22 -6 0
1 -19 41 0
1 -19 -14 0
1 19 -39 0
1 -19 -42 0
1 19 43 0
1 -19 4 0
1 19 22 0
1 19 44 0
1 19 -6 0
1 -39 -41 0
1 -39 35 0
1 39 -13 0
1 39 -19 0
1 39 20 0
1 39 -36 0
1 -39 16 0
1 39 -22 0
1 41 -35 0
1 -41 13 0
1 41 19 0
1 41 36 0
1 41 -16 0
1 -41 22 0
1 -41 23 0
1 -38 19 0
1 -38 20 0
1 38 40 0
1 -38 22 0
1 38 -23 0
1 40 -19 0
1 -40 38 0
1 40 -20 0
1 40 -23 0
1 16 -8 0
1 16 39 0
1 16 -43 0
1 16 -4 0
1 -16 -5 0
1 -16 11 0
1 16 31 0
1 16 41 0
1 -16 44 0
1 16 45 0
1 16 6 0
1 -16 -2 0
1 13 -8 0
1 13 -29 0
1 -13 39 0
1 -13 -42 0
1 -13 -4 0
1 -13 -5 0
1 13 -11 0
1 -13 -16 0
1 13 6 0
1 -13 2 0
1 36 -8 0
1 36 35 0
1 -36 39 0
1 36 42 0
1 36 43 0
1 -36 21 0
1 36 11 0
1 -36 33 0
1 -36 -44 0
1 -36 45 0
1 35 -46 0
1 35 -32 0
1 35 8 0
1 35 42 0
1 -35 43 0
1 -35 21 0
1 -35 -47 0
1 35 11 0
1 -35 -41 0
1 35 -44 0
1 -43 35 0
1 -43 19 0
1 -43 37 0
1 -43 -30 0
1 -43 36 0
1 43 16 0
1 43 22 0
1 -43 45 0
1 43 -48 0
1 -43 -34 0
1 45 -35 0
1 -45 13 0
1 45 19 0
1 45 43 0
1 45 37 0
1 -45 36 0
1 -45 16 0
1 -45 22 0
1 -45 48 0
1 -45 34 0
1 42 35 0
1 42 -13 0
1 42 -19 0
1 -42 -36 0
1 -42 -16 0
1 42 -22 0
1 -42 -44 0
1 44 -35 0
1 44 -13 0
1 -44 -19 0
1 -44 42 0
1 44 -16 0
1 44 22 0
1 -30 46 0
1 -30 8 0
1 30 -9 0
1 -30 25 0
1 -30 -43 0
1 30 21 0
1 30 -47 0
1 30 -27 0
1 34 -8 0
1 34 46 0
1 -34 9 0
1 -34 -25 0
1 34 43 0
1 34 -21 0
1 34 -30 0
1 34 -47 0
1 -34 -11 0
1 -34 -12 0
1 37 -46 0
1 37 25 0
1 -37 43 0
1 37 47 0
1 -37 27 0
1 -37 45 0
1 37 48 0
1 37 24 0
1 -48 -46 0
1 -48 43 0
1 -48 37 0
1 -48 47 0
1 -48 27 0
1 48 24 0
1 -48 -45 0
1 47 46 0
1 -47 -35 0
1 47 37 0
1 47 5 0
1 47 -36 0
1 -47 -48 0
1 47 -34 0
1 46 35 0
1 -46 -30 0
1 -46 47 0
1 -46 -36 0
1 -46 48 0
1 46 34 0
1 -21 35 0
1 21 -37 0
1 21 4 0
1 -21 30 0
1 -21 36 0
1 21 48 0
1 21 24 0
1 -21 -34 0
1 24 35 0
1 -24 -37 0
1 -24 -21 0
1 24 -30 0
1 24 36 0
1 24 -6 0
1 24 48 0
1 -24 34 0
